80 8
80 74
84 29
4 80
96 12
69 39
34 39
52 12
77 9
61 79
7 45
58 84
75 60
28 29
53 56
32 82
39 25
79 44
85 93
28 55
11 43
62 5
9 5
79 5
20 48
44 68
47 87
43 33
29 10
95 42
40 17
32 55
49 18
37 4
62 12
65 7
82 100
7 10
27 67
78 53
55 10
63 85
2 90
100 67
40 75
58 31
11 2
80 43
12 26
39 49
21 23
54 92
94 79
81 77
25 52
37 49
71 44
58 53
43 51
76 21
25 53
81 17
80 49
5 5
15 72
94 32
73 89
18 33
96 52
95 50
54 100
24 47
65 98
55 47
20 80
18 12
98 27
23 12
5 16
53 4
78 74
494 637
365 592
345 474
433 555
437 657
457 659
336 512
461 670
